r = [
0,4,3,11,2,8,5,4,5,11,4,0
];
p = [
0,14,6,8,20,18,15,3,11,4,29,0
];
e = [
0,6,12,5,12,11,4,12,1,7,1,0
];
d = [
0,111,108,182,131,84,167,131,99,100,172,198
];
d_bar = [
0,124,113,189,149,100,181,134,109,104,198,198
];
w = [
0,0.461538462,2.4,0.714285714,0.666666667,0.6875,0.285714286,4,0.1,1.75,0.038461538,0
];
